100 3882
453 1057 1208 1359 236 708 354 944 472 755 604 1062 236 472 1180 354 453 906 236 236 604 118 472 1180 151 453 906 604 826 354 755 354 944 472 1359 1359 1180 453 906 1057 906 151 755 118 1510 1510 1359 236 906 1057 944 453 604 1208 1510 236 1359 1180 1180 1057 708 1180 1180 118 302 236 755 1180 944 472 708 1359 590 1359 708 1057 1062 590 472 604 151 826 1180 1180 236 826 354 453 590 302 590 1180 944 590 944 1057 1359 826 1359 354 
393 917 1048 1179 196 588 294 784 392 655 524 882 196 392 980 294 393 786 196 196 524 98 392 980 131 393 786 524 686 294 655 294 784 392 1179 1179 980 393 786 917 786 131 655 98 1310 1310 1179 196 786 917 784 393 524 1048 1310 196 1179 980 980 917 588 980 980 98 262 196 655 980 784 392 588 1179 490 1179 588 917 882 490 392 524 131 686 980 980 196 686 294 393 490 262 490 980 784 490 784 917 1179 686 1179 294 
